p edge 25 37
e 1 4
e 1 17
e 1 20
e 1 21
e 2 21
e 3 4
e 3 7
e 3 17
e 3 19
e 3 22
e 4 12
e 6 12
e 7 10
e 8 25
e 9 11
e 9 12
e 9 13
e 9 14
e 9 25
e 10 11
e 10 14
e 10 19
e 10 25
e 11 21
e 12 14
e 12 18
e 13 14
e 14 17
e 14 21
e 14 25
e 16 22
e 16 23
e 17 18
e 17 21
e 18 22
e 19 23
e 22 23
